 27 92 75 94 18 41 37 58 56 20  2 39 91 81 33 14 88 22 36 65
 79 23 66  5 15 51  2 81 12 40 59 32 16 87 78 41 43 94  1 93
 22 93 62 53 30 34 27 30 54 77 24 47 39 66 41 46 24 23 68 50
 93 22 64 81 94 97 54 82 11 91 23 32 26 22 12 23 34 87 59  2
 38 84 62 10 11 93 57 81 10 40 62 49 90 34 11 81 51 21 39 27